CMD:
./solvers/bin/cadical --plain --no-reduce -t 1600 ./data/cnfs//beemptrsn1b1/beemptrsn1b1.32.cnf

c --- [ banner ] -------------------------------------------------------------
c 
c CaDiCaL SAT Solver
c Copyright (c) 2016-2024
c A. Biere, M. Fleury, N. Froleyks, K. Fazekas, F. Pollitt, T. Faller
c JKU Linz, University of Freiburg, TU Wien
c 
c Version 2.1.3 5296d3d2a9bf48c154ab2acb5e44625776d821bf
c g++ (Gentoo 12.3.1_p20230526 p2) 12.3.1 20230526 -Wall -Wextra -O3 -DNDEBUG
c Sat Aug 9 07:26:21 PDT 2025 Linux cedar2.int.cedar.computecanada.ca 5.14.0-362.24.2.el9_3.x86_64 x86_64
c 
c --- [ limit ] --------------------------------------------------------------
c 
c setting time limit to 1600 seconds real time (due to '-t 1600')
c 
c --- [ parsing input ] ------------------------------------------------------
c 
c reading DIMACS file from './data/cnfs//beemptrsn1b1/beemptrsn1b1.32.cnf'
c opening file to read './data/cnfs//beemptrsn1b1/beemptrsn1b1.32.cnf'
c found 'p cnf 63506 177125' header
c parsed 177125 clauses in 0.03 seconds process time
c 
c --- [ options ] ------------------------------------------------------------
c 
c   --compact=false                (different from default 'true')
c   --decompose=false              (different from default 'true')
c   --deduplicate=false            (different from default 'true')
c   --elim=false                   (different from default 'true')
c   --probe=false                  (different from default 'true')
c   --reduce=false                 (different from default 'true')
c   --subsume=false                (different from default 'true')
c   --ternary=false                (different from default 'true')
c   --transred=false               (different from default 'true')
c   --vivify=false                 (different from default 'true')
c 
c --- [ solving ] ------------------------------------------------------------
c 
c time measured in process time since initialization
c 
c  seconds  reductions  redundant  irredundant
c         MB    restarts       trail       variables
c          level   conflicts       glue         remaining
c 
c *  0.03 32  0 0   0    0    0  0% 0 176351 35645 56%
c {  0.04 32  0 0   0    0    0  0% 0 176351 35645 56%
c i  0.06 33 141 0   3  148  134 77% 4 176351 35491 56%
c i  0.06 33 132 0   3  158  143 76% 4 176351 35458 56%
c i  0.06 33 124 0   3  170  152 74% 3 176351 35445 56%
c i  0.06 33 119 0   3  179  158 72% 3 176351 35311 56%
c i  0.06 33 69 0   6  348  308 61% 3 176351 35237 55%
c i  0.06 33 69 0   6  352  311 61% 3 176351 35185 55%
c i  0.06 33 67 0   6  364  319 60% 3 176351 35174 55%
c i  0.06 33 65 0   6  373  327 60% 3 176351 35164 55%
c i  0.06 33 63 0   6  390  339 59% 3 176351 35156 55%
c i  0.06 33 61 0   6  424  371 59% 3 176351 35155 55%
c i  0.07 33 60 0   6  440  384 59% 3 176351 35154 55%
c i  0.08 33 58 0  22  574  505 59% 3 176351 35150 55%
c i  0.09 33 55 0  32  622  541 58% 3 176351 35142 55%
c i  0.10 33 53 0  53  824  732 58% 3 176351 35074 55%
c i  0.10 33 53 0  53  828  735 58% 3 176351 35072 55%
c i  0.10 33 53 0  53  829  735 58% 3 176351 35057 55%
c i  0.11 33 51 0  57  949  839 57% 3 176351 35019 55%
c i  0.11 33 51 0  57  954  843 57% 3 176351 35012 55%
c 
c  seconds  reductions  redundant  irredundant
c         MB    restarts       trail       variables
c          level   conflicts       glue         remaining
c 
c }  0.11 33 51 0  57 1002  886 58% 3 176351 35012 55%
c [  0.11 33  0 0  57 1002  886  0% 0 176351 35012 55%
c O  0.11 33 25 0  57 1003  887 46% 1 176351 34809 55%
c i  0.12 33 92 0  57 1024  907 53% 2 176351 34808 55%
c i  0.12 33 88 0  57 1050  931 55% 5 176351 34806 55%
c i  0.12 33 88 0  57 1051  931 55% 5 176351 34805 55%
c i  0.12 33 88 0  57 1052  931 55% 5 176351 34804 55%
c i  0.12 33 88 0  57 1053  931 55% 5 176351 34803 55%
c i  0.12 33 88 0  57 1054  931 55% 5 176351 34802 55%
c i  0.12 33 88 0  57 1055  931 55% 5 176351 34801 55%
c i  0.12 33 88 0  57 1056  931 55% 5 176351 34800 55%
c i  0.12 33 88 0  57 1057  931 55% 5 176351 34799 55%
c i  0.12 33 88 0  57 1058  931 55% 4 176351 34798 55%
c i  0.12 33 89 0  57 1064  936 54% 4 176351 34797 55%
c i  0.12 33 88 0  57 1070  936 54% 4 176351 34791 55%
c i  0.12 33 88 0  57 1071  936 54% 4 176351 34790 55%
c i  0.12 33 87 0  57 1072  936 54% 4 176351 34789 55%
c i  0.12 33 86 0  57 1074  936 54% 4 176351 34652 55%
c i  0.12 33 83 0  57 1077  937 53% 4 176351 34594 54%
c i  0.12 33 82 0  57 1078  937 53% 3 176351 34593 54%
c 
c  seconds  reductions  redundant  irredundant
c         MB    restarts       trail       variables
c          level   conflicts       glue         remaining
c 
c i  0.13 33 94 0  57 1111  961 57% 3 176351 34586 54%
c i  0.13 33 88 0  57 1203 1047 59% 5 176351 34585 54%
c i  0.13 33 88 0  57 1206 1049 59% 4 176351 34584 54%
c i  0.13 33 88 0  57 1221 1063 60% 4 176351 34583 54%
... skipped 502 lines ...
c i 17.52 54 34 0 10159 104246 90802 69% 9 71218 24136 38%
c B 17.74 54 34 0 10279 105029 91523 69% 9 71218 24136 38%
c i 17.83 54 34 0 10355 105345 91796 69% 9 71218 24127 38%
c i 17.97 54 34 0 10428 105942 92270 69% 9 71218 24123 38%
c i 18.19 54 34 0 10524 107036 93206 69% 9 71218 24105 38%
c i 18.58 54 33 0 10770 108459 94485 69% 9 71218 24096 38%
c i 18.58 54 33 0 10770 108471 94495 69% 9 71218 24056 38%
c i 18.59 54 33 0 10770 108679 94690 69% 9 71218 24022 38%
c i 18.85 54 33 0 10881 109956 95864 69% 9 71218 24021 38%
c i 18.85 54 33 0 10881 109957 95864 69% 9 71218 24009 38%
c i 19.16 54 33 0 11041 111324 97094 69% 9 71218 24002 38%
c i 19.16 54 33 0 11041 111326 97094 69% 9 71218 23997 38%
c i 19.49 54 33 0 11183 113346 98801 69% 9 71218 23978 38%
c i 19.89 54 33 0 11438 115034 100331 70% 9 71218 23928 38%
c 
c  seconds  reductions       redundant   irredundant
c         MB     restarts            trail      variables
c          level      conflicts          glue        remaining
c 
c i 20.49 54 32 0 11722 117448 102368 70% 9 71218 23927 38%
c i 20.49 54 32 0 11722 117449 102368 70% 9 71218 23900 38%
c i 20.49 54 32 0 11722 117450 102368 70% 9 71218 23896 38%
c W 21.33 62 32 0 12140 120030 102372 70% 9 65906 23896 38%
c i 21.77 62 32 0 12362 121691 103886 70% 10 65906 22725 36%
c i 21.90 62 32 0 12404 122338 104407 70% 10 65906 22723 36%
c i 22.19 62 31 0 12514 123689 105498 70% 10 65906 22691 36%
c i 22.70 62 31 0 12801 125998 107350 70% 10 65906 22671 36%
c } 22.93 62 31 0 12951 127006 108255 70% 10 65906 22671 36%
c [ 22.93 62 69 0 12951 127006 108255 74% 13 65906 22671 36%
c i 24.20 62 60 0 12955 134295 114313 74% 13 65906 22667 36%
c i 24.37 62 59 0 12956 135431 115187 74% 13 65906 22634 36%
c B 24.49 62 58 0 12956 136031 115726 74% 13 65906 22634 36%
c i 25.07 62 55 0 12958 139234 118174 74% 13 65906 22458 35%
c i 25.32 62 53 0 12959 140789 119407 75% 13 65906 22419 35%
c i 25.81 62 51 0 12959 143209 121386 75% 13 65906 22404 35%
c i 25.94 62 51 0 12960 144029 122073 75% 13 65906 22389 35%
c i 26.15 62 50 0 12960 145330 123231 75% 13 65906 22382 35%
c i 26.91 62 47 0 12960 149328 126549 75% 13 65906 22289 35%
c i 27.03 62 47 0 12960 149949 127035 75% 13 65906 19534 31%
c 
c  seconds  reductions       redundant    irredundant
c         MB     restarts            trail       variables
c          level      conflicts          glue         remaining
c 
c ] 27.03 62 47 0 12960 149952 127035 75% 13 65906 18650 29%
c 0 27.03 62 47 0 12960 149952 127035 75% 13 65906 18650 29%
c 
c --- [ result ] -------------------------------------------------------------
c 
s UNSATISFIABLE
c 
c --- [ run-time profiling ] -------------------------------------------------
c 
c process time taken by individual solving procedures
c (percentage relative to process time for solving)
c 
c        27.00  100.00% search
c        17.98   66.59% unstable
c         8.79   32.54% stable
c         0.23    0.85% walk
c         0.03    0.13% parse
c         0.01    0.02% lucky
c         0.00    0.00% simplify
c   =================================
c        27.00   99.87% solve
c 
c last line shows process time for solving
c (percentage relative to total process time)
c 
c --- [ statistics ] ---------------------------------------------------------
c 
c chronological:             45343        30.24 %  of conflicts
c conflicts:                149952      5554.37    per second
c decisions:                611046     22633.74    per second
c fixed:                     44856        70.63 %  of all variables
c learned:                  144578        96.42 %  per conflict
c learned_lits:           11660788       100.00 %  learned literals
c minimized:                     0         0.00 %  learned literals
c shrunken:                2694328        23.11 %  learned literals
c minishrunken:            3002927        25.75 %  learned literals
c otfs:                        712         0.47 %  of conflict
c propagations:          200964266         7.44 M  per second
c rephased:                     16      9372.00    interval
c restarts:                  12960        11.57    interval
c stabilizing:                   4        43.31 %  of conflicts
c subsumed:                  12270         3.83 %  of all clauses
c strengthened:                704         0.22 %  of all clauses
c walked:                        4     37488.00    interval
c 
c seconds are measured in process time for solving
c 
c --- [ resources ] ----------------------------------------------------------
c 
c total process time since initialization:        27.03    seconds
c total real time since initialization:           27.15    seconds
c maximum resident set size of process:           73.71    MB
c 
c --- [ shutting down ] ------------------------------------------------------
c 
c exit 20
